DATASET = "thpack7";
INSTANCE = "063";

WIDTH = 233;
HEIGHT = 220;
LENGTH = 587;

NO_OF_SHAPES = 20;
size = [|
  82,76,59 |
  60,51,50 |
  104,66,61 |
  71,36,28 |
  89,77,26 |
  108,84,66 |
  90,51,45 |
  48,35,33 |
  89,57,52 |
  99,77,58 |
  92,86,66 |
  93,80,46 |
  72,45,39 |
  73,46,24 |
  112,71,37 |
  70,69,69 |
  112,64,27 |
  52,42,39 |
  120,84,23 |
  94,61,36 |
|];

verticality = [|
  1,1,1 |
  1,1,1 |
  1,1,1 |
  0,1,1 |
  0,0,1 |
  1,1,1 |
  0,1,1 |
  1,1,1 |
  1,1,1 |
  1,1,1 |
  1,1,1 |
  0,1,1 |
  1,1,1 |
  0,1,1 |
  0,1,1 |
  1,1,1 |
  0,0,1 |
  1,1,1 |
  0,0,1 |
  0,1,1 |
|];

box_count = [
  4,
  3,
  9,
  5,
  1,
  7,
  5,
  4,
  6,
  5,
  5,
  10,
  6,
  5,
  6,
  4,
  2,
  6,
  7,
  7,
];
